param Pab := 
3
1
4
2
5
;

param Doctores := 
Gracia
Gladys
Genara
Amina
Amaia
Analena
Golda
Analisa
Anandi
Guadalupe
Gittel
Ada
Gessica
Grisel
Gwynyber
Gianina
Alcina
Agar
Andretta
Guitl
Gladis
Adelaida
Ammia
Galadriel
Alondra
Aglae
Gita
Gwenda
Gioia
Anastacia
Gabriella
Graciela
Gisele
Alegria
Agustina
Amor
Gillian
Gisa
Anella
Ginette
Anaba
Gayle
Altair
Gloria
Alva
Anisa
Amye
Anoha
Alaide
Albina
Arantzazu
Aldegunda
Anil
Arcelia
Anacarla
Alodie
Ambar
Anael
Ainsley
Analiz
Aitiana
Arydea
Antje
Anhelen
Aviva
Aida
Antolina
Annis
Agatonica
Alcira
Aquilina
Aleksandra
Angeni
Antonieta
Andromaca
Alenka
Althea
Asia
Athalia
Aneider
Abril
Aime
Alin
Any
Aracelli
Amaltea
Anahid
;

param Paramedicas := 
Andreana
Aricel
Abijail
Armonia
Alulay
Adelburga
Ailla
Aislinn
Alicia
Ariene
Alita
Aruanda
Amber
Airlia
Ascension
Arena
Adah
Anaelle
Aylin
Adolfina
Armenia
Angeles
Anyel
Amable
Anunciada
Aggie
Arcadia
Alvia
Araminta
Amambay
Arapey
Alexa
Astrid
Aoniken
Alomai
Alcmena
Alfonsina
Agate
Ann
Adrienne
Aracoeli
Autana
Aileen
Alesia
Alona
Amaranta
Armanda
Angelines
Analaura
Anette
Alumine
Amada
Arantza
Aurelia
Ailen
Asta
Alinda
Aretha
Altagracia
Alethea
Arneris
Agape
Athina
Adalgisa
Aracy
Avital
Amneris
Augusta
Ana
Allegra
Alexina
Amaury
Aischa
Atenas
Alison
Andura
Autumm
Aniella
Adela
Ananda
Aquilesia
Alithia
Audra
Ashling
Aldara
;

param HdocSem := 
Gracia
Gladys
Genara
Amina
Amaia
Analena
Golda
Analisa
Anandi
Guadalupe
Gittel
Ada
Gessica
Grisel
Gwynyber
Gianina
Alcina
Agar
Andretta
Guitl
Gladis
Adelaida
Ammia
Galadriel
Alondra
Aglae
Gita
Gwenda
Gioia
Anastacia
Gabriella
Graciela
Gisele
Alegria
Agustina
Amor
Gillian
Gisa
Anella
Ginette
Anaba
Gayle
Altair
Gloria
;

